* Signature: 0xd0e4df2b541aa69e
NAME pk1_copy
ROWS
 N  OBJ
 E  c1      
 E  c2      
 E  c3      
 E  c4      
 E  c5      
 E  c6      
 E  c7      
 E  c8      
 E  c9      
 E  c10     
 E  c11     
 E  c12     
 E  c13     
 E  c14     
 E  c15     
 G  c16     
 G  c17     
 G  c18     
 G  c19     
 G  c20     
 G  c21     
 G  c22     
 G  c23     
 G  c24     
 G  c25     
 G  c26     
 G  c27     
 G  c28     
 G  c29     
 G  c30     
 G  c31     
 G  c32     
 G  c33     
 G  c34     
 G  c35     
 G  c36     
 G  c37     
 G  c38     
 G  c39     
 G  c40     
 G  c41     
 G  c42     
 G  c43     
 G  c44     
 G  c45     
COLUMNS
    x1        OBJ       1
    x1        c16       1
    x1        c17       1
    x1        c18       1
    x1        c19       1
    x1        c20       1
    x1        c21       1
    x1        c22       1
    x1        c23       1
    x1        c24       1
    x1        c25       1
    x1        c26       1
    x1        c27       1
    x1        c28       1
    x1        c29       1
    x1        c30       1
    x1        c31       1
    x1        c32       1
    x1        c33       1
    x1        c34       1
    x1        c35       1
    x1        c36       1
    x1        c37       1
    x1        c38       1
    x1        c39       1
    x1        c40       1
    x1        c41       1
    x1        c42       1
    x1        c43       1
    x1        c44       1
    x1        c45       1
    x2        c1        14
    x2        c2        53
    x2        c3        48
    x2        c4        33
    x2        c5        15
    x2        c6        43
    x2        c7        8
    x2        c8        38
    x2        c9        34
    x2        c10       37
    x2        c11       25
    x2        c12       42
    x2        c13       16
    x2        c14       10
    x2        c15       28
    x3        c1        36
    x3        c2        48
    x3        c3        34
    x3        c4        34
    x3        c5        9
    x3        c6        28
    x3        c7        30
    x3        c8        42
    x3        c9        13
    x3        c10       42
    x3        c11       47
    x3        c12       33
    x3        c13       6
    x3        c14       51
    x3        c15       47
    x4        c1        11
    x4        c2        48
    x4        c3        8
    x4        c4        36
    x4        c5        24
    x4        c6        30
    x4        c7        18
    x4        c8        24
    x4        c9        39
    x4        c10       23
    x4        c11       25
    x4        c12       45
    x4        c13       47
    x4        c14       33
    x4        c15       16
    x5        c1        27
    x5        c2        12
    x5        c3        5
    x5        c4        34
    x5        c5        43
    x5        c6        30
    x5        c7        16
    x5        c8        46
    x5        c9        19
    x5        c10       41
    x5        c11       29
    x5        c12       6
    x5        c13       30
    x5        c14       23
    x5        c15       32
    x6        c1        49
    x6        c2        43
    x6        c3        49
    x6        c4        19
    x6        c5        53
    x6        c6        10
    x6        c7        18
    x6        c8        20
    x6        c9        51
    x6        c10       33
    x6        c11       44
    x6        c12       33
    x6        c13       45
    x6        c14       31
    x6        c15       28
    x7        c1        26
    x7        c2        42
    x7        c3        21
    x7        c4        19
    x7        c5        54
    x7        c6        26
    x7        c7        21
    x7        c8        11
    x7        c9        13
    x7        c10       14
    x7        c11       22
    x7        c12       6
    x7        c13       37
    x7        c14       34
    x7        c15       16
    x8        c1        37
    x8        c2        14
    x8        c3        38
    x8        c4        30
    x8        c5        29
    x8        c6        32
    x8        c7        24
    x8        c8        32
    x8        c9        22
    x8        c10       40
    x8        c11       10
    x8        c12       24
    x8        c13       16
    x8        c14       32
    x8        c15       32
    x9        c1        45
    x9        c2        48
    x9        c3        11
    x9        c4        48
    x9        c5        24
    x9        c6        54
    x9        c7        46
    x9        c8        52
    x9        c9        20
    x9        c10       53
    x9        c11       21
    x9        c12       54
    x9        c13       19
    x9        c14       23
    x9        c15       15
    x10       c1        21
    x10       c2        16
    x10       c3        26
    x10       c4        32
    x10       c5        11
    x10       c6        26
    x10       c7        47
    x10       c8        24
    x10       c9        24
    x10       c10       14
    x10       c11       5
    x10       c12       9
    x10       c13       5
    x10       c14       38
    x10       c15       11
    x11       c1        6
    x11       c2        23
    x11       c3        12
    x11       c4        30
    x11       c5        47
    x11       c6        52
    x11       c7        6
    x11       c8        31
    x11       c9        45
    x11       c10       23
    x11       c11       10
    x11       c12       12
    x11       c13       44
    x11       c14       32
    x11       c15       8
    x12       c1        48
    x12       c2        25
    x12       c3        30
    x12       c4        26
    x12       c5        24
    x12       c6        34
    x12       c7        48
    x12       c8        45
    x12       c9        30
    x12       c10       37
    x12       c11       35
    x12       c12       48
    x12       c13       45
    x12       c14       40
    x12       c15       21
    x13       c1        38
    x13       c2        36
    x13       c3        18
    x13       c4        39
    x13       c5        34
    x13       c6        24
    x13       c7        27
    x13       c8        50
    x13       c9        51
    x13       c10       9
    x13       c11       17
    x13       c12       51
    x13       c13       53
    x13       c14       30
    x13       c15       33
    x14       c1        37
    x14       c2        54
    x14       c3        23
    x14       c4        47
    x14       c5        29
    x14       c6        21
    x14       c7        10
    x14       c8        47
    x14       c9        24
    x14       c10       14
    x14       c11       20
    x14       c12       16
    x14       c13       22
    x14       c14       14
    x14       c15       15
    x15       c1        10
    x15       c2        34
    x15       c3        8
    x15       c4        37
    x15       c5        49
    x15       c6        39
    x15       c7        26
    x15       c8        6
    x15       c9        17
    x15       c10       38
    x15       c11       33
    x15       c12       48
    x15       c13       40
    x15       c14       19
    x15       c15       54
    x16       c1        16
    x16       c2        45
    x16       c3        55
    x16       c4        52
    x16       c5        50
    x16       c6        41
    x16       c7        6
    x16       c8        15
    x16       c9        23
    x16       c10       19
    x16       c11       27
    x16       c12       8
    x16       c13       47
    x16       c14       37
    x16       c15       22
    x17       c1        35
    x17       c2        51
    x17       c3        46
    x17       c4        33
    x17       c5        39
    x17       c6        47
    x17       c7        36
    x17       c8        53
    x17       c9        22
    x17       c10       24
    x17       c11       39
    x17       c12       21
    x17       c13       55
    x17       c14       48
    x17       c15       55
    x18       c1        17
    x18       c2        45
    x18       c3        5
    x18       c4        5
    x18       c5        50
    x18       c6        36
    x18       c7        52
    x18       c8        20
    x18       c9        29
    x18       c10       29
    x18       c11       50
    x18       c12       54
    x18       c13       43
    x18       c14       36
    x18       c15       13
    x19       c1        7
    x19       c2        46
    x19       c3        10
    x19       c4        39
    x19       c5        36
    x19       c6        27
    x19       c7        14
    x19       c8        24
    x19       c9        36
    x19       c10       55
    x19       c11       17
    x19       c12       46
    x19       c13       34
    x19       c14       33
    x19       c15       47
    x20       c1        46
    x20       c2        30
    x20       c3        50
    x20       c4        34
    x20       c5        32
    x20       c6        52
    x20       c7        29
    x20       c8        31
    x20       c9        14
    x20       c10       29
    x20       c11       11
    x20       c12       39
    x20       c13       33
    x20       c14       27
    x20       c15       19
    x21       c1        26
    x21       c2        38
    x21       c3        52
    x21       c4        42
    x21       c5        42
    x21       c6        7
    x21       c7        43
    x21       c8        40
    x21       c9        33
    x21       c10       40
    x21       c11       25
    x21       c12       23
    x21       c13       6
    x21       c14       20
    x21       c15       33
    x22       c1        8
    x22       c2        52
    x22       c3        45
    x22       c4        30
    x22       c5        55
    x22       c6        6
    x22       c7        7
    x22       c8        54
    x22       c9        51
    x22       c10       52
    x22       c11       42
    x22       c12       11
    x22       c13       13
    x22       c14       14
    x22       c15       35
    x23       c1        40
    x23       c2        21
    x23       c3        42
    x23       c4        33
    x23       c5        21
    x23       c6        52
    x23       c7        8
    x23       c8        10
    x23       c9        17
    x23       c10       54
    x23       c11       50
    x23       c12       28
    x23       c13       15
    x23       c14       50
    x23       c15       15
    x24       c1        19
    x24       c2        9
    x24       c3        43
    x24       c4        19
    x24       c5        11
    x24       c6        13
    x24       c7        26
    x24       c8        40
    x24       c9        35
    x24       c10       16
    x24       c11       19
    x24       c12       27
    x24       c13       36
    x24       c14       54
    x24       c15       44
    x25       c1        33
    x25       c2        21
    x25       c3        19
    x25       c4        21
    x25       c5        24
    x25       c6        30
    x25       c7        31
    x25       c8        30
    x25       c9        31
    x25       c10       23
    x25       c11       40
    x25       c12       21
    x25       c13       41
    x25       c14       34
    x25       c15       55
    x26       c1        5
    x26       c2        15
    x26       c3        25
    x26       c4        38
    x26       c5        45
    x26       c6        32
    x26       c7        10
    x26       c8        50
    x26       c9        39
    x26       c10       8
    x26       c11       37
    x26       c12       30
    x26       c13       39
    x26       c14       50
    x26       c15       39
    x27       c1        42
    x27       c2        22
    x27       c3        8
    x27       c4        40
    x27       c5        10
    x27       c6        46
    x27       c7        6
    x27       c8        14
    x27       c9        12
    x27       c10       53
    x27       c11       38
    x27       c12       38
    x27       c13       50
    x27       c14       14
    x27       c15       28
    x28       c1        22
    x28       c2        12
    x28       c3        27
    x28       c4        9
    x28       c5        30
    x28       c6        41
    x28       c7        7
    x28       c8        44
    x28       c9        47
    x28       c10       23
    x28       c11       22
    x28       c12       52
    x28       c13       38
    x28       c14       54
    x28       c15       39
    x29       c1        14
    x29       c2        12
    x29       c3        5
    x29       c4        33
    x29       c5        42
    x29       c6        12
    x29       c7        12
    x29       c8        41
    x29       c9        9
    x29       c10       9
    x29       c11       20
    x29       c12       18
    x29       c13       18
    x29       c14       9
    x29       c15       23
    x30       c1        51
    x30       c2        19
    x30       c3        41
    x30       c4        48
    x30       c5        38
    x30       c6        44
    x30       c7        33
    x30       c8        42
    x30       c9        46
    x30       c10       52
    x30       c11       5
    x30       c12       43
    x30       c13       36
    x30       c14       37
    x30       c15       6
    x31       c1        49
    x31       c2        17
    x31       c3        39
    x31       c4        35
    x31       c5        51
    x31       c6        7
    x31       c7        42
    x31       c8        29
    x31       c9        46
    x31       c10       52
    x31       c11       16
    x31       c12       46
    x31       c13       6
    x31       c14       55
    x31       c15       20
    x32       c1        7
    x32       c2        38
    x32       c3        52
    x32       c4        42
    x32       c5        6
    x32       c6        12
    x32       c7        41
    x32       c8        8
    x32       c9        55
    x32       c10       37
    x32       c11       22
    x32       c12       42
    x32       c13       13
    x32       c14       55
    x32       c15       36
    x33       c1        10
    x33       c2        17
    x33       c3        33
    x33       c4        26
    x33       c5        48
    x33       c6        32
    x33       c7        37
    x33       c8        24
    x33       c9        25
    x33       c10       33
    x33       c11       25
    x33       c12       29
    x33       c13       47
    x33       c14       42
    x33       c15       29
    x34       c1        30
    x34       c2        9
    x34       c3        17
    x34       c4        13
    x34       c5        5
    x34       c6        30
    x34       c7        17
    x34       c8        16
    x34       c9        55
    x34       c10       39
    x34       c11       8
    x34       c12       23
    x34       c13       8
    x34       c14       51
    x34       c15       12
    x35       c1        14
    x35       c2        30
    x35       c3        5
    x35       c4        23
    x35       c5        25
    x35       c6        38
    x35       c7        55
    x35       c8        27
    x35       c9        38
    x35       c10       55
    x35       c11       43
    x35       c12       32
    x35       c13       5
    x35       c14       32
    x35       c15       48
    x36       c1        32
    x36       c2        24
    x36       c3        34
    x36       c4        55
    x36       c5        36
    x36       c6        6
    x36       c7        48
    x36       c8        15
    x36       c9        39
    x36       c10       18
    x36       c11       50
    x36       c12       31
    x36       c13       22
    x36       c14       10
    x36       c15       6
    x37       c1        24
    x37       c2        48
    x37       c3        11
    x37       c4        27
    x37       c5        53
    x37       c6        36
    x37       c7        31
    x37       c8        31
    x37       c9        51
    x37       c10       17
    x37       c11       47
    x37       c12       52
    x37       c13       48
    x37       c14       26
    x37       c15       35
    x38       c1        36
    x38       c2        16
    x38       c3        21
    x38       c4        37
    x38       c5        24
    x38       c6        8
    x38       c7        20
    x38       c8        34
    x38       c9        46
    x38       c10       14
    x38       c11       9
    x38       c12       33
    x38       c13       37
    x38       c14       11
    x38       c15       8
    x39       c1        14
    x39       c2        34
    x39       c3        16
    x39       c4        30
    x39       c5        10
    x39       c6        34
    x39       c7        17
    x39       c8        42
    x39       c9        6
    x39       c10       54
    x39       c11       5
    x39       c12       51
    x39       c13       34
    x39       c14       38
    x39       c15       33
    x40       c1        13
    x40       c2        41
    x40       c3        17
    x40       c4        20
    x40       c5        22
    x40       c6        34
    x40       c7        21
    x40       c8        28
    x40       c9        15
    x40       c10       14
    x40       c11       12
    x40       c12       50
    x40       c13       11
    x40       c14       45
    x40       c15       46
    x41       c1        52
    x41       c2        28
    x41       c3        42
    x41       c4        14
    x41       c5        31
    x41       c6        30
    x41       c7        11
    x41       c8        53
    x41       c9        15
    x41       c10       24
    x41       c11       10
    x41       c12       38
    x41       c13       38
    x41       c14       44
    x41       c15       15
    x42       c1        16
    x42       c2        52
    x42       c3        23
    x42       c4        5
    x42       c5        53
    x42       c6        31
    x42       c7        19
    x42       c8        17
    x42       c9        47
    x42       c10       21
    x42       c11       10
    x42       c12       7
    x42       c13       22
    x42       c14       14
    x42       c15       37
    x43       c1        5
    x43       c2        10
    x43       c3        43
    x43       c4        42
    x43       c5        41
    x43       c6        13
    x43       c7        13
    x43       c8        18
    x43       c9        40
    x43       c10       46
    x43       c11       42
    x43       c12       42
    x43       c13       52
    x43       c14       30
    x43       c15       11
    x44       c1        35
    x44       c2        8
    x44       c3        5
    x44       c4        49
    x44       c5        10
    x44       c6        49
    x44       c7        34
    x44       c8        48
    x44       c9        10
    x44       c10       28
    x44       c11       22
    x44       c12       34
    x44       c13       35
    x44       c14       19
    x44       c15       44
    x45       c1        48
    x45       c2        51
    x45       c3        42
    x45       c4        47
    x45       c5        26
    x45       c6        47
    x45       c7        24
    x45       c8        8
    x45       c9        15
    x45       c10       30
    x45       c11       25
    x45       c12       18
    x45       c13       39
    x45       c14       24
    x45       c15       48
    x46       c1        11
    x46       c2        40
    x46       c3        47
    x46       c4        24
    x46       c5        35
    x46       c6        48
    x46       c7        35
    x46       c8        19
    x46       c9        52
    x46       c10       29
    x46       c11       20
    x46       c12       35
    x46       c13       37
    x46       c14       44
    x46       c15       9
    x47       c1        47
    x47       c2        48
    x47       c3        55
    x47       c4        45
    x47       c5        55
    x47       c6        35
    x47       c7        35
    x47       c8        7
    x47       c9        29
    x47       c10       43
    x47       c11       45
    x47       c12       37
    x47       c13       27
    x47       c14       52
    x47       c15       11
    x48       c1        27
    x48       c2        46
    x48       c3        32
    x48       c4        25
    x48       c5        10
    x48       c6        39
    x48       c7        55
    x48       c8        6
    x48       c9        32
    x48       c10       50
    x48       c11       9
    x48       c12       35
    x48       c13       38
    x48       c14       16
    x48       c15       47
    x49       c1        24
    x49       c2        30
    x49       c3        47
    x49       c4        24
    x49       c5        29
    x49       c6        29
    x49       c7        31
    x49       c8        35
    x49       c9        26
    x49       c10       53
    x49       c11       15
    x49       c12       33
    x49       c13       24
    x49       c14       24
    x49       c15       18
    x50       c1        49
    x50       c2        38
    x50       c3        9
    x50       c4        28
    x50       c5        36
    x50       c6        6
    x50       c7        44
    x50       c8        27
    x50       c9        10
    x50       c10       43
    x50       c11       7
    x50       c12       28
    x50       c13       5
    x50       c14       29
    x50       c15       54
    x51       c1        17
    x51       c2        21
    x51       c3        26
    x51       c4        54
    x51       c5        37
    x51       c6        35
    x51       c7        29
    x51       c8        33
    x51       c9        42
    x51       c10       24
    x51       c11       15
    x51       c12       18
    x51       c13       16
    x51       c14       39
    x51       c15       10
    x52       c1        46
    x52       c2        12
    x52       c3        43
    x52       c4        11
    x52       c5        15
    x52       c6        32
    x52       c7        19
    x52       c8        20
    x52       c9        55
    x52       c10       38
    x52       c11       35
    x52       c12       52
    x52       c13       25
    x52       c14       39
    x52       c15       46
    x53       c1        53
    x53       c2        35
    x53       c3        50
    x53       c4        53
    x53       c5        36
    x53       c6        7
    x53       c7        46
    x53       c8        25
    x53       c9        6
    x53       c10       39
    x53       c11       44
    x53       c12       34
    x53       c13       14
    x53       c14       39
    x53       c15       34
    x54       c1        53
    x54       c2        38
    x54       c3        13
    x54       c4        32
    x54       c5        54
    x54       c6        32
    x54       c7        33
    x54       c8        39
    x54       c9        54
    x54       c10       22
    x54       c11       9
    x54       c12       42
    x54       c13       27
    x54       c14       33
    x54       c15       20
    x55       c1        10
    x55       c2        17
    x55       c3        30
    x55       c4        25
    x55       c5        22
    x55       c6        40
    x55       c7        41
    x55       c8        55
    x55       c9        34
    x55       c10       49
    x55       c11       50
    x55       c12       24
    x55       c13       6
    x55       c14       37
    x55       c15       35
    x56       c1        30
    x56       c2        52
    x56       c3        14
    x56       c4        19
    x56       c5        55
    x56       c6        33
    x56       c7        22
    x56       c8        51
    x56       c9        32
    x56       c10       7
    x56       c11       28
    x56       c12       51
    x56       c13       51
    x56       c14       17
    x56       c15       33
    x57       c1        1
    x57       c16       -1
    x58       c1        -1
    x58       c17       -1
    x59       c2        1
    x59       c18       -1
    x60       c2        -1
    x60       c19       -1
    x61       c3        1
    x61       c20       -1
    x62       c3        -1
    x62       c21       -1
    x63       c4        1
    x63       c22       -1
    x64       c4        -1
    x64       c23       -1
    x65       c5        1
    x65       c24       -1
    x66       c5        -1
    x66       c25       -1
    x67       c6        1
    x67       c26       -1
    x68       c6        -1
    x68       c27       -1
    x69       c7        1
    x69       c28       -1
    x70       c7        -1
    x70       c29       -1
    x71       c8        1
    x71       c30       -1
    x72       c8        -1
    x72       c31       -1
    x73       c9        1
    x73       c32       -1
    x74       c9        -1
    x74       c33       -1
    x75       c10       1
    x75       c34       -1
    x76       c10       -1
    x76       c35       -1
    x77       c11       1
    x77       c36       -1
    x78       c11       -1
    x78       c37       -1
    x79       c12       1
    x79       c38       -1
    x80       c12       -1
    x80       c39       -1
    x81       c13       1
    x81       c40       -1
    x82       c13       -1
    x82       c41       -1
    x83       c14       1
    x83       c42       -1
    x84       c14       -1
    x84       c43       -1
    x85       c15       1
    x85       c44       -1
    x86       c15       -1
    x86       c45       -1
RHS
    RHS1      c1        731
    RHS1      c2        731
    RHS1      c3        731
    RHS1      c4        731
    RHS1      c5        731
    RHS1      c6        731
    RHS1      c7        731
    RHS1      c8        731
    RHS1      c9        731
    RHS1      c10       731
    RHS1      c11       731
    RHS1      c12       731
    RHS1      c13       731
    RHS1      c14       731
    RHS1      c15       731
BOUNDS
 UP BND1      x2        1
 UP BND1      x3        1
 UP BND1      x4        1
 UP BND1      x5        1
 UP BND1      x6        1
 UP BND1      x7        1
 UP BND1      x8        1
 UP BND1      x9        1
 UP BND1      x10       1
 UP BND1      x11       1
 UP BND1      x12       1
 UP BND1      x13       1
 UP BND1      x14       1
 UP BND1      x15       1
 UP BND1      x16       1
 UP BND1      x17       1
 UP BND1      x18       1
 UP BND1      x19       1
 UP BND1      x20       1
 UP BND1      x21       1
 UP BND1      x22       1
 UP BND1      x23       1
 UP BND1      x24       1
 UP BND1      x25       1
 UP BND1      x26       1
 UP BND1      x27       1
 UP BND1      x28       1
 UP BND1      x29       1
 UP BND1      x30       1
 UP BND1      x31       1
 UP BND1      x32       1
 UP BND1      x33       1
 UP BND1      x34       1
 UP BND1      x35       1
 UP BND1      x36       1
 UP BND1      x37       1
 UP BND1      x38       1
 UP BND1      x39       1
 UP BND1      x40       1
 UP BND1      x41       1
 UP BND1      x42       1
 UP BND1      x43       1
 UP BND1      x44       1
 UP BND1      x45       1
 UP BND1      x46       1
 UP BND1      x47       1
 UP BND1      x48       1
 UP BND1      x49       1
 UP BND1      x50       1
 UP BND1      x51       1
 UP BND1      x52       1
 UP BND1      x53       1
 UP BND1      x54       1
 UP BND1      x55       1
 UP BND1      x56       1
ENDATA
